(declare-fun _for_it_23 () Int)
(declare-fun _if_cond_64_val () (Array Int Int))
(declare-fun _if_cond_65_val () (Array Int Int))
(declare-fun _if_cond_66_val () (Array Int Int))
(declare-fun _if_cond_67_val () (Array Int Int))
(declare-fun _if_cond_68_val () (Array Int Int))
(declare-fun _if_cond_69_val () (Array Int Int))

(assert (forall ((_for_it_57 Int) (kfdia Int) (kidia Int) (klev Int) (klon Int) (ncldtop Int))
  (=>
    (and
      (<= kidia (+ kfdia (- 1)))
      (<= ncldtop (+ klev (- 1)))
      (<= (+ _for_it_57 1) (+ kfdia (- 1)))
      (<= (+ kidia (- 1)) _for_it_57)
      (not (or (and (= (select _if_cond_65_val (- (+ (* (- (+ _for_it_23 1) ncldtop) (- kfdia kidia)) _for_it_57 1) kidia)) 1) (= (select _if_cond_66_val 0) 1) (= (select _if_cond_65_val (- (+ (* (- (+ _for_it_23 1) ncldtop) (- kfdia kidia)) _for_it_57 2) kidia)) 1) (= (select _if_cond_64_val (- (+ (* (- (+ _for_it_23 1) ncldtop) (- kfdia kidia)) _for_it_57 2) kidia)) 1) (= (select _if_cond_64_val (- (+ (* (- (+ _for_it_23 1) ncldtop) (- kfdia kidia)) _for_it_57 1) kidia)) 1) (= _for_it_57 (+ _for_it_57 1))) (and (= (select _if_cond_65_val (- (+ (* (- (+ _for_it_23 1) ncldtop) (- kfdia kidia)) _for_it_57 1) kidia)) 1) (= (select _if_cond_66_val 0) 1) (= (select _if_cond_64_val (- (+ (* (- (+ _for_it_23 1) ncldtop) (- kfdia kidia)) _for_it_57 2) kidia)) 1) (= (select _if_cond_64_val (- (+ (* (- (+ _for_it_23 1) ncldtop) (- kfdia kidia)) _for_it_57 1) kidia)) 1) (= _for_it_57 (- (+ _for_it_57 2) 1)) (= (select _if_cond_67_val (- (+ (* (- (+ _for_it_23 1) ncldtop) (- kfdia kidia)) _for_it_57 2) kidia)) 1)) (and (= (select _if_cond_65_val (- (+ (* (- (+ _for_it_23 1) ncldtop) (- kfdia kidia)) _for_it_57 1) kidia)) 1) (not (= (select _if_cond_66_val 0) 1)) (= (select _if_cond_65_val (- (+ (* (- (+ _for_it_23 1) ncldtop) (- kfdia kidia)) _for_it_57 2) kidia)) 1) (= (select _if_cond_64_val (- (+ (* (- (+ _for_it_23 1) ncldtop) (- kfdia kidia)) _for_it_57 2) kidia)) 1) (= (select _if_cond_64_val (- (+ (* (- (+ _for_it_23 1) ncldtop) (- kfdia kidia)) _for_it_57 1) kidia)) 1) (= _for_it_57 (+ _for_it_57 1))) (and (= (select _if_cond_65_val (- (+ (* (- (+ _for_it_23 1) ncldtop) (- kfdia kidia)) _for_it_57 1) kidia)) 1) (not (= (select _if_cond_66_val 0) 1)) (= (select _if_cond_64_val (- (+ (* (- (+ _for_it_23 1) ncldtop) (- kfdia kidia)) _for_it_57 2) kidia)) 1) (= (select _if_cond_64_val (- (+ (* (- (+ _for_it_23 1) ncldtop) (- kfdia kidia)) _for_it_57 1) kidia)) 1) (= _for_it_57 (- (+ _for_it_57 2) 1)) (= (select _if_cond_67_val (- (+ (* (- (+ _for_it_23 1) ncldtop) (- kfdia kidia)) _for_it_57 2) kidia)) 1)) (= (- (+ (* (- (+ _for_it_23 1) ncldtop) (- kfdia kidia)) _for_it_57 1) kidia) (- (+ (* (- (+ _for_it_23 1) ncldtop) (- kfdia kidia)) _for_it_57 2) kidia)) (and (= (- (+ (* (- (+ _for_it_23 1) ncldtop) (- kfdia kidia)) _for_it_57 1) kidia) (- (+ (* (- (+ _for_it_23 1) ncldtop) (- kfdia kidia)) _for_it_57 2) kidia)) (= (select _if_cond_64_val (- (+ (* (- (+ _for_it_23 1) ncldtop) (- kfdia kidia)) _for_it_57 2) kidia)) 1) (= (select _if_cond_64_val (- (+ (* (- (+ _for_it_23 1) ncldtop) (- kfdia kidia)) _for_it_57 1) kidia)) 1)) (and (= (select _if_cond_66_val 0) 1) (= (select _if_cond_65_val (- (+ (* (- (+ _for_it_23 1) ncldtop) (- kfdia kidia)) _for_it_57 2) kidia)) 1) (= (select _if_cond_64_val (- (+ (* (- (+ _for_it_23 1) ncldtop) (- kfdia kidia)) _for_it_57 2) kidia)) 1) (= (select _if_cond_64_val (- (+ (* (- (+ _for_it_23 1) ncldtop) (- kfdia kidia)) _for_it_57 1) kidia)) 1) (= (- (+ _for_it_57 1) 1) (+ _for_it_57 1)) (= (select _if_cond_67_val (- (+ (* (- (+ _for_it_23 1) ncldtop) (- kfdia kidia)) _for_it_57 1) kidia)) 1)) (and (not (= (select _if_cond_66_val 0) 1)) (= (select _if_cond_65_val (- (+ (* (- (+ _for_it_23 1) ncldtop) (- kfdia kidia)) _for_it_57 2) kidia)) 1) (= (select _if_cond_64_val (- (+ (* (- (+ _for_it_23 1) ncldtop) (- kfdia kidia)) _for_it_57 2) kidia)) 1) (= (select _if_cond_64_val (- (+ (* (- (+ _for_it_23 1) ncldtop) (- kfdia kidia)) _for_it_57 1) kidia)) 1) (= (- (+ _for_it_57 1) 1) (+ _for_it_57 1)) (= (select _if_cond_67_val (- (+ (* (- (+ _for_it_23 1) ncldtop) (- kfdia kidia)) _for_it_57 1) kidia)) 1)) (and (= (select _if_cond_69_val (- (+ (* (- (+ _for_it_23 1) ncldtop) (- kfdia kidia)) _for_it_57 2) kidia)) 1) (= (select _if_cond_68_val (- (+ (* (- (+ _for_it_23 1) ncldtop) (- kfdia kidia)) _for_it_57 1) kidia)) 1) (= (select _if_cond_64_val (- (+ (* (- (+ _for_it_23 1) ncldtop) (- kfdia kidia)) _for_it_57 2) kidia)) 1) (= (select _if_cond_64_val (- (+ (* (- (+ _for_it_23 1) ncldtop) (- kfdia kidia)) _for_it_57 1) kidia)) 1) (= (select _if_cond_67_val (- (+ (* (- (+ _for_it_23 1) ncldtop) (- kfdia kidia)) _for_it_57 2) kidia)) 1) (= (select _if_cond_67_val (- (+ (* (- (+ _for_it_23 1) ncldtop) (- kfdia kidia)) _for_it_57 1) kidia)) 1)) (and (= (select _if_cond_68_val (- (+ (* (- (+ _for_it_23 1) ncldtop) (- kfdia kidia)) _for_it_57 1) kidia)) 1) (= (select _if_cond_68_val (- (+ (* (- (+ _for_it_23 1) ncldtop) (- kfdia kidia)) _for_it_57 2) kidia)) 1) (= (select _if_cond_64_val (- (+ (* (- (+ _for_it_23 1) ncldtop) (- kfdia kidia)) _for_it_57 2) kidia)) 1) (= (select _if_cond_64_val (- (+ (* (- (+ _for_it_23 1) ncldtop) (- kfdia kidia)) _for_it_57 1) kidia)) 1) (= (select _if_cond_67_val (- (+ (* (- (+ _for_it_23 1) ncldtop) (- kfdia kidia)) _for_it_57 2) kidia)) 1) (= (select _if_cond_67_val (- (+ (* (- (+ _for_it_23 1) ncldtop) (- kfdia kidia)) _for_it_57 1) kidia)) 1)) (and (= (select _if_cond_68_val (- (+ (* (- (+ _for_it_23 1) ncldtop) (- kfdia kidia)) _for_it_57 1) kidia)) 1) (= (select _if_cond_68_val (- (+ (* (- (+ _for_it_23 1) ncldtop) (- kfdia kidia)) _for_it_57 2) kidia)) 1) (= (select _if_cond_64_val (- (+ (* (- (+ _for_it_23 1) ncldtop) (- kfdia kidia)) _for_it_57 2) kidia)) 1) (= (select _if_cond_64_val (- (+ (* (- (+ _for_it_23 1) ncldtop) (- kfdia kidia)) _for_it_57 1) kidia)) 1) (= (select _if_cond_67_val (- (+ (* (- (+ _for_it_23 1) ncldtop) (- kfdia kidia)) _for_it_57 2) kidia)) 1) (= (select _if_cond_67_val (- (+ (* (- (+ _for_it_23 1) ncldtop) (- kfdia kidia)) _for_it_57 1) kidia)) 1) (= _for_it_57 (+ _for_it_57 1))) (and (= (select _if_cond_68_val (- (+ (* (- (+ _for_it_23 1) ncldtop) (- kfdia kidia)) _for_it_57 1) kidia)) 1) (not (= (select _if_cond_68_val (- (+ (* (- (+ _for_it_23 1) ncldtop) (- kfdia kidia)) _for_it_57 2) kidia)) 1)) (= (select _if_cond_64_val (- (+ (* (- (+ _for_it_23 1) ncldtop) (- kfdia kidia)) _for_it_57 2) kidia)) 1) (= (select _if_cond_64_val (- (+ (* (- (+ _for_it_23 1) ncldtop) (- kfdia kidia)) _for_it_57 1) kidia)) 1) (= (select _if_cond_67_val (- (+ (* (- (+ _for_it_23 1) ncldtop) (- kfdia kidia)) _for_it_57 2) kidia)) 1) (= (select _if_cond_67_val (- (+ (* (- (+ _for_it_23 1) ncldtop) (- kfdia kidia)) _for_it_57 1) kidia)) 1) (= _for_it_57 (+ _for_it_57 1))) (and (= (select _if_cond_68_val (- (+ (* (- (+ _for_it_23 1) ncldtop) (- kfdia kidia)) _for_it_57 1) kidia)) 1) (= (select _if_cond_64_val (- (+ (* (- (+ _for_it_23 1) ncldtop) (- kfdia kidia)) _for_it_57 2) kidia)) 1) (= (select _if_cond_64_val (- (+ (* (- (+ _for_it_23 1) ncldtop) (- kfdia kidia)) _for_it_57 1) kidia)) 1) (= _for_it_57 (- (+ _for_it_57 2) 1)) (= (select _if_cond_67_val (- (+ (* (- (+ _for_it_23 1) ncldtop) (- kfdia kidia)) _for_it_57 2) kidia)) 1) (= (select _if_cond_67_val (- (+ (* (- (+ _for_it_23 1) ncldtop) (- kfdia kidia)) _for_it_57 1) kidia)) 1)) (and (= (select _if_cond_69_val (- (+ (* (- (+ _for_it_23 1) ncldtop) (- kfdia kidia)) _for_it_57 2) kidia)) 1) (= (select _if_cond_68_val (- (+ (* (- (+ _for_it_23 1) ncldtop) (- kfdia kidia)) _for_it_57 1) kidia)) 1) (= (select _if_cond_64_val (- (+ (* (- (+ _for_it_23 1) ncldtop) (- kfdia kidia)) _for_it_57 2) kidia)) 1) (= (select _if_cond_64_val (- (+ (* (- (+ _for_it_23 1) ncldtop) (- kfdia kidia)) _for_it_57 1) kidia)) 1) (= (select _if_cond_67_val (- (+ (* (- (+ _for_it_23 1) ncldtop) (- kfdia kidia)) _for_it_57 2) kidia)) 1) (= (select _if_cond_67_val (- (+ (* (- (+ _for_it_23 1) ncldtop) (- kfdia kidia)) _for_it_57 1) kidia)) 1) (= _for_it_57 (+ _for_it_57 1))) (and (not (= (select _if_cond_68_val (- (+ (* (- (+ _for_it_23 1) ncldtop) (- kfdia kidia)) _for_it_57 1) kidia)) 1)) (= (select _if_cond_68_val (- (+ (* (- (+ _for_it_23 1) ncldtop) (- kfdia kidia)) _for_it_57 2) kidia)) 1) (= (select _if_cond_64_val (- (+ (* (- (+ _for_it_23 1) ncldtop) (- kfdia kidia)) _for_it_57 2) kidia)) 1) (= (select _if_cond_64_val (- (+ (* (- (+ _for_it_23 1) ncldtop) (- kfdia kidia)) _for_it_57 1) kidia)) 1) (= (select _if_cond_67_val (- (+ (* (- (+ _for_it_23 1) ncldtop) (- kfdia kidia)) _for_it_57 2) kidia)) 1) (= (select _if_cond_67_val (- (+ (* (- (+ _for_it_23 1) ncldtop) (- kfdia kidia)) _for_it_57 1) kidia)) 1) (= _for_it_57 (+ _for_it_57 1))) (and (not (= (select _if_cond_68_val (- (+ (* (- (+ _for_it_23 1) ncldtop) (- kfdia kidia)) _for_it_57 1) kidia)) 1)) (not (= (select _if_cond_68_val (- (+ (* (- (+ _for_it_23 1) ncldtop) (- kfdia kidia)) _for_it_57 2) kidia)) 1)) (= (select _if_cond_64_val (- (+ (* (- (+ _for_it_23 1) ncldtop) (- kfdia kidia)) _for_it_57 2) kidia)) 1) (= (select _if_cond_64_val (- (+ (* (- (+ _for_it_23 1) ncldtop) (- kfdia kidia)) _for_it_57 1) kidia)) 1) (= (select _if_cond_67_val (- (+ (* (- (+ _for_it_23 1) ncldtop) (- kfdia kidia)) _for_it_57 2) kidia)) 1) (= (select _if_cond_67_val (- (+ (* (- (+ _for_it_23 1) ncldtop) (- kfdia kidia)) _for_it_57 1) kidia)) 1)) (and (not (= (select _if_cond_68_val (- (+ (* (- (+ _for_it_23 1) ncldtop) (- kfdia kidia)) _for_it_57 1) kidia)) 1)) (not (= (select _if_cond_68_val (- (+ (* (- (+ _for_it_23 1) ncldtop) (- kfdia kidia)) _for_it_57 2) kidia)) 1)) (= (select _if_cond_64_val (- (+ (* (- (+ _for_it_23 1) ncldtop) (- kfdia kidia)) _for_it_57 2) kidia)) 1) (= (select _if_cond_64_val (- (+ (* (- (+ _for_it_23 1) ncldtop) (- kfdia kidia)) _for_it_57 1) kidia)) 1) (= (select _if_cond_67_val (- (+ (* (- (+ _for_it_23 1) ncldtop) (- kfdia kidia)) _for_it_57 2) kidia)) 1) (= (select _if_cond_67_val (- (+ (* (- (+ _for_it_23 1) ncldtop) (- kfdia kidia)) _for_it_57 1) kidia)) 1) (= _for_it_57 (+ _for_it_57 1))) (and (not (= (select _if_cond_68_val (- (+ (* (- (+ _for_it_23 1) ncldtop) (- kfdia kidia)) _for_it_57 1) kidia)) 1)) (= (select _if_cond_64_val (- (+ (* (- (+ _for_it_23 1) ncldtop) (- kfdia kidia)) _for_it_57 2) kidia)) 1) (= (select _if_cond_64_val (- (+ (* (- (+ _for_it_23 1) ncldtop) (- kfdia kidia)) _for_it_57 1) kidia)) 1) (= _for_it_57 (- (+ _for_it_57 2) 1)) (= (select _if_cond_67_val (- (+ (* (- (+ _for_it_23 1) ncldtop) (- kfdia kidia)) _for_it_57 2) kidia)) 1) (= (select _if_cond_67_val (- (+ (* (- (+ _for_it_23 1) ncldtop) (- kfdia kidia)) _for_it_57 1) kidia)) 1)) (and (= (select _if_cond_69_val (- (+ (* (- (+ _for_it_23 1) ncldtop) (- kfdia kidia)) _for_it_57 2) kidia)) 1) (not (= (select _if_cond_68_val (- (+ (* (- (+ _for_it_23 1) ncldtop) (- kfdia kidia)) _for_it_57 1) kidia)) 1)) (= (select _if_cond_64_val (- (+ (* (- (+ _for_it_23 1) ncldtop) (- kfdia kidia)) _for_it_57 2) kidia)) 1) (= (select _if_cond_64_val (- (+ (* (- (+ _for_it_23 1) ncldtop) (- kfdia kidia)) _for_it_57 1) kidia)) 1) (= (select _if_cond_67_val (- (+ (* (- (+ _for_it_23 1) ncldtop) (- kfdia kidia)) _for_it_57 2) kidia)) 1) (= (select _if_cond_67_val (- (+ (* (- (+ _for_it_23 1) ncldtop) (- kfdia kidia)) _for_it_57 1) kidia)) 1) (= _for_it_57 (+ _for_it_57 1))) (and (= (select _if_cond_68_val (- (+ (* (- (+ _for_it_23 1) ncldtop) (- kfdia kidia)) _for_it_57 2) kidia)) 1) (= (select _if_cond_64_val (- (+ (* (- (+ _for_it_23 1) ncldtop) (- kfdia kidia)) _for_it_57 2) kidia)) 1) (= (select _if_cond_64_val (- (+ (* (- (+ _for_it_23 1) ncldtop) (- kfdia kidia)) _for_it_57 1) kidia)) 1) (= (- (+ _for_it_57 1) 1) (+ _for_it_57 1)) (= (select _if_cond_67_val (- (+ (* (- (+ _for_it_23 1) ncldtop) (- kfdia kidia)) _for_it_57 2) kidia)) 1) (= (select _if_cond_67_val (- (+ (* (- (+ _for_it_23 1) ncldtop) (- kfdia kidia)) _for_it_57 1) kidia)) 1)) (and (not (= (select _if_cond_68_val (- (+ (* (- (+ _for_it_23 1) ncldtop) (- kfdia kidia)) _for_it_57 2) kidia)) 1)) (= (select _if_cond_64_val (- (+ (* (- (+ _for_it_23 1) ncldtop) (- kfdia kidia)) _for_it_57 2) kidia)) 1) (= (select _if_cond_64_val (- (+ (* (- (+ _for_it_23 1) ncldtop) (- kfdia kidia)) _for_it_57 1) kidia)) 1) (= (- (+ _for_it_57 1) 1) (+ _for_it_57 1)) (= (select _if_cond_67_val (- (+ (* (- (+ _for_it_23 1) ncldtop) (- kfdia kidia)) _for_it_57 2) kidia)) 1) (= (select _if_cond_67_val (- (+ (* (- (+ _for_it_23 1) ncldtop) (- kfdia kidia)) _for_it_57 1) kidia)) 1)) (and (= (select _if_cond_64_val (- (+ (* (- (+ _for_it_23 1) ncldtop) (- kfdia kidia)) _for_it_57 2) kidia)) 1) (= (select _if_cond_64_val (- (+ (* (- (+ _for_it_23 1) ncldtop) (- kfdia kidia)) _for_it_57 1) kidia)) 1) (= (select _if_cond_67_val (- (+ (* (- (+ _for_it_23 1) ncldtop) (- kfdia kidia)) _for_it_57 2) kidia)) 1) (= (- (+ (* (- (+ _for_it_23 1) ncldtop) (- kfdia kidia)) _for_it_57 1) kidia) (- (+ (* (- (+ _for_it_23 1) ncldtop) (- kfdia kidia)) _for_it_57 2) kidia)) (= (select _if_cond_67_val (- (+ (* (- (+ _for_it_23 1) ncldtop) (- kfdia kidia)) _for_it_57 1) kidia)) 1)) (and (= (select _if_cond_68_val (- (+ (* (- (+ _for_it_23 1) ncldtop) (- kfdia kidia)) _for_it_57 2) kidia)) 1) (= (select _if_cond_64_val (- (+ (* (- (+ _for_it_23 1) ncldtop) (- kfdia kidia)) _for_it_57 2) kidia)) 1) (= (select _if_cond_64_val (- (+ (* (- (+ _for_it_23 1) ncldtop) (- kfdia kidia)) _for_it_57 1) kidia)) 1) (= (select _if_cond_67_val (- (+ (* (- (+ _for_it_23 1) ncldtop) (- kfdia kidia)) _for_it_57 2) kidia)) 1) (= (select _if_cond_69_val (- (+ (* (- (+ _for_it_23 1) ncldtop) (- kfdia kidia)) _for_it_57 1) kidia)) 1) (= (select _if_cond_67_val (- (+ (* (- (+ _for_it_23 1) ncldtop) (- kfdia kidia)) _for_it_57 1) kidia)) 1) (= _for_it_57 (+ _for_it_57 1))) (and (not (= (select _if_cond_68_val (- (+ (* (- (+ _for_it_23 1) ncldtop) (- kfdia kidia)) _for_it_57 2) kidia)) 1)) (= (select _if_cond_64_val (- (+ (* (- (+ _for_it_23 1) ncldtop) (- kfdia kidia)) _for_it_57 2) kidia)) 1) (= (select _if_cond_64_val (- (+ (* (- (+ _for_it_23 1) ncldtop) (- kfdia kidia)) _for_it_57 1) kidia)) 1) (= (select _if_cond_67_val (- (+ (* (- (+ _for_it_23 1) ncldtop) (- kfdia kidia)) _for_it_57 2) kidia)) 1) (= (select _if_cond_69_val (- (+ (* (- (+ _for_it_23 1) ncldtop) (- kfdia kidia)) _for_it_57 1) kidia)) 1) (= (select _if_cond_67_val (- (+ (* (- (+ _for_it_23 1) ncldtop) (- kfdia kidia)) _for_it_57 1) kidia)) 1) (= _for_it_57 (+ _for_it_57 1))) (and (= (select _if_cond_68_val (- (+ (* (- (+ _for_it_23 1) ncldtop) (- kfdia kidia)) _for_it_57 2) kidia)) 1) (= (select _if_cond_64_val (- (+ (* (- (+ _for_it_23 1) ncldtop) (- kfdia kidia)) _for_it_57 2) kidia)) 1) (= (select _if_cond_64_val (- (+ (* (- (+ _for_it_23 1) ncldtop) (- kfdia kidia)) _for_it_57 1) kidia)) 1) (= (select _if_cond_67_val (- (+ (* (- (+ _for_it_23 1) ncldtop) (- kfdia kidia)) _for_it_57 2) kidia)) 1) (= (select _if_cond_69_val (- (+ (* (- (+ _for_it_23 1) ncldtop) (- kfdia kidia)) _for_it_57 1) kidia)) 1) (= (select _if_cond_67_val (- (+ (* (- (+ _for_it_23 1) ncldtop) (- kfdia kidia)) _for_it_57 1) kidia)) 1)) (and (= (select _if_cond_69_val (- (+ (* (- (+ _for_it_23 1) ncldtop) (- kfdia kidia)) _for_it_57 2) kidia)) 1) (= (select _if_cond_64_val (- (+ (* (- (+ _for_it_23 1) ncldtop) (- kfdia kidia)) _for_it_57 2) kidia)) 1) (= (select _if_cond_64_val (- (+ (* (- (+ _for_it_23 1) ncldtop) (- kfdia kidia)) _for_it_57 1) kidia)) 1) (= (select _if_cond_67_val (- (+ (* (- (+ _for_it_23 1) ncldtop) (- kfdia kidia)) _for_it_57 2) kidia)) 1) (= (select _if_cond_69_val (- (+ (* (- (+ _for_it_23 1) ncldtop) (- kfdia kidia)) _for_it_57 1) kidia)) 1) (= (select _if_cond_67_val (- (+ (* (- (+ _for_it_23 1) ncldtop) (- kfdia kidia)) _for_it_57 1) kidia)) 1)) (and (= (select _if_cond_69_val (- (+ (* (- (+ _for_it_23 1) ncldtop) (- kfdia kidia)) _for_it_57 2) kidia)) 1) (= (select _if_cond_64_val (- (+ (* (- (+ _for_it_23 1) ncldtop) (- kfdia kidia)) _for_it_57 2) kidia)) 1) (= (select _if_cond_64_val (- (+ (* (- (+ _for_it_23 1) ncldtop) (- kfdia kidia)) _for_it_57 1) kidia)) 1) (= (select _if_cond_67_val (- (+ (* (- (+ _for_it_23 1) ncldtop) (- kfdia kidia)) _for_it_57 2) kidia)) 1) (= (select _if_cond_69_val (- (+ (* (- (+ _for_it_23 1) ncldtop) (- kfdia kidia)) _for_it_57 1) kidia)) 1) (= (select _if_cond_67_val (- (+ (* (- (+ _for_it_23 1) ncldtop) (- kfdia kidia)) _for_it_57 1) kidia)) 1) (= _for_it_57 (+ _for_it_57 1))) (and (= (select _if_cond_65_val (- (+ (* (- (+ _for_it_23 1) ncldtop) (- kfdia kidia)) _for_it_57 1) kidia)) 1) (= (select _if_cond_65_val (- (+ (* (- (+ _for_it_23 1) ncldtop) (- kfdia kidia)) _for_it_57 2) kidia)) 1) (= (select _if_cond_64_val (- (+ (* (- (+ _for_it_23 1) ncldtop) (- kfdia kidia)) _for_it_57 2) kidia)) 1) (= (select _if_cond_64_val (- (+ (* (- (+ _for_it_23 1) ncldtop) (- kfdia kidia)) _for_it_57 1) kidia)) 1) (= _for_it_57 (+ _for_it_57 1))) (and (= (select _if_cond_65_val (- (+ (* (- (+ _for_it_23 1) ncldtop) (- kfdia kidia)) _for_it_57 2) kidia)) 1) (= (select _if_cond_64_val (- (+ (* (- (+ _for_it_23 1) ncldtop) (- kfdia kidia)) _for_it_57 2) kidia)) 1) (= (select _if_cond_65_val (- (+ (* (- (+ _for_it_23 1) ncldtop) (- kfdia kidia)) _for_it_57 1) kidia)) 1) (= (select _if_cond_64_val (- (+ (* (- (+ _for_it_23 1) ncldtop) (- kfdia kidia)) _for_it_57 1) kidia)) 1))))
    )
    false
  )
))

(check-sat)